param set_len = 58;
param target_sum = 14336909011;
param values := [1] 485887214 [2] 913528664 [3] 587931529 [4] 277631004 [5] 571371549 [6] 432503957 [7] 795602458 [8] 221519810 [9] 818088669 [10] 226006424 [11] 738893113 [12] 508053429 [13] 1069354761 [14] 495443685 [15] 429695807 [16] 152593007 [17] 714328696 [18] 584257124 [19] 234020454 [20] 847236516 [21] 352622159 [22] 178070212 [23] 500775281 [24] 434563240 [25] 1013028977 [26] 215862249 [27] 298643720 [28] 95036427 [29] 503129409 [30] 691339009 [31] 913065780 [32] 27360423 [33] 601862553 [34] 549278107 [35] 104404666 [36] 708762952 [37] 633046307 [38] 812932869 [39] 452623596 [40] 447519189 [41] 95223098 [42] 739362618 [43] 171845344 [44] 443803749 [45] 175737201 [46] 755512847 [47] 532422699 [48] 556946904 [49] 688269165 [50] 649070374 [51] 355926695 [52] 1020506636 [53] 673481041 [54] 295801001 [55] 156954716 [56] 265505182 [57] 441663981 [58] 744889960 ;
